Si                                      
   1.00000000000000     
     2.7342253401330034    2.7342253401330034    0.0000000000000000
     0.0000000000000000    2.7342253401330034    2.7342253401330034
     2.7342253401330034    0.0000000000000000    2.7342253401330034
   Si
     2
Direct
  0.0000000000000000  0.0000000000000000  0.0000000000000000
  0.2500000000000000  0.2500000000000000  0.2500000000000000
 
  0.00000000E+00  0.00000000E+00  0.00000000E+00
  0.00000000E+00  0.00000000E+00  0.00000000E+00
