Sb2Te3 4QL                              
   1.00000000000000     
     4.2421841621000000    0.0000000000000000    0.0000000000000000
    -2.1210920811000000    3.6738392519000000    0.0000000000000000
     0.0000000000000000    0.0000000000000000   58.3501797890000020
   Sb   Te
     8    12
Direct
  0.0000000000000000  0.0000000000000000  0.0970661211075310
  0.0000000000000000  0.0000000000000000  0.6277698716748787
  0.0000000000000000  0.0000000000000000  0.2064250785379755
  0.6666666864136914  0.3333333431414189  0.2739418030736545
  0.6666666864136914  0.3333333431414189  0.3833073426075018
  0.3333333432853749  0.6666666865550326  0.4508413041118331
  0.3333333432853749  0.6666666865550326  0.0294732706746217
  0.3333333432853749  0.6666666865550326  0.5601993784626416
  0.0000000000000000  0.0000000000000000  0.3034688111330581
  0.0000000000000000  0.0000000000000000  0.0000407781280245
  0.0000000000000000  0.0000000000000000  0.5306213770531087
  0.6666666864136914  0.3333333431414189  0.4803426506503712
  0.6666666864136914  0.3333333431414189  0.1768813783047776
  0.3333333432853749  0.6666666865550326  0.1266101657152632
  0.3333333432853749  0.6666666865550326  0.6572072231556803
  0.3333333432853749  0.6666666865550326  0.3537602900477452
  0.0000000000000000  0.0000000000000000  0.4170596800667781
  0.6666666864136914  0.3333333431414189  0.0632943821599667
  0.6666666864136914  0.3333333431414189  0.5939396186313743
  0.3333333432853749  0.6666666865550326  0.2401703942407423
 
  0.00000000E+00  0.00000000E+00  0.00000000E+00
  0.00000000E+00  0.00000000E+00  0.00000000E+00
  0.00000000E+00  0.00000000E+00  0.00000000E+00
  0.00000000E+00  0.00000000E+00  0.00000000E+00
  0.00000000E+00  0.00000000E+00  0.00000000E+00
  0.00000000E+00  0.00000000E+00  0.00000000E+00
  0.00000000E+00  0.00000000E+00  0.00000000E+00
  0.00000000E+00  0.00000000E+00  0.00000000E+00
  0.00000000E+00  0.00000000E+00  0.00000000E+00
  0.00000000E+00  0.00000000E+00  0.00000000E+00
  0.00000000E+00  0.00000000E+00  0.00000000E+00
  0.00000000E+00  0.00000000E+00  0.00000000E+00
  0.00000000E+00  0.00000000E+00  0.00000000E+00
  0.00000000E+00  0.00000000E+00  0.00000000E+00
  0.00000000E+00  0.00000000E+00  0.00000000E+00
  0.00000000E+00  0.00000000E+00  0.00000000E+00
  0.00000000E+00  0.00000000E+00  0.00000000E+00
  0.00000000E+00  0.00000000E+00  0.00000000E+00
  0.00000000E+00  0.00000000E+00  0.00000000E+00
  0.00000000E+00  0.00000000E+00  0.00000000E+00
