ST_SG
40
Line-mode
reciprocal
0.083333 0.083333 0.00000 !K/4
0.000000 0.000000 0.00000 !G

0.000000 0.000000 0.00000 !G
0.125    0.000000 0.00000 !M/4
