Sb2Te3 4QL
   1.00000000000000
     4.2421841621000000    0.0000000000000000    0.0000000000000000
    -2.1210920811000000    3.6738392519000000    0.0000000000000000
     0.0000000000000000    0.0000000000000000   58.3501797890000020
   Sb   Te
     8    12
Direct
 -0.0000000000000000  0.0000000000000000  0.0970661211075312
 -0.0000000000000000 -0.0000000000000000  0.6277698716748799
 -0.0000000000000000 -0.0000000000000000  0.2064250785379722
  0.6666666864136914  0.3333333431414189  0.2739418030736535
  0.6666666864136914  0.3333333431414189  0.3833073426075011
  0.3333333432853749  0.6666666865550326  0.4508413041118307
  0.3333333432853749  0.6666666865550326  0.0294732706746243
  0.3333333432853749  0.6666666865550326  0.5601993784626402
 -0.0000000000000000 -0.0000000000000000  0.3034688111330553
 -0.0000000000000000 -0.0000000000000000  0.0000407781280278
 -0.0000000000000000 -0.0000000000000000  0.5306213770531062
  0.6666666864136914  0.3333333431414189  0.4803426506503700
  0.6666666864136914  0.3333333431414189  0.1768813783047780
  0.3333333432853749  0.6666666865550326  0.1266101657152629
  0.3333333432853749  0.6666666865550326  0.6572072231556794
  0.3333333432853749  0.6666666865550326  0.3537602900477436
 -0.0000000000000000 -0.0000000000000000  0.4170596800667813
  0.6666666864136914  0.3333333431414189  0.0632943821599684
  0.6666666864136914  0.3333333431414189  0.5939396186313768
  0.3333333432853749  0.6666666865550326  0.2401703942407452