Si                                      
   1.00000000000000     
     2.7130872455805983    2.7130872455805983    0.0000000000000000
     0.0000000000000000    2.7130872455805983    2.7130872455805983
     2.7130872455805983    0.0000000000000000    2.7130872455805983
   Si
     2
Direct
  0.0000000000000000  0.0000000000000000  0.0000000000000000
  0.2500000000000000  0.2500000000000000  0.2500000000000000
 
  0.00000000E+00  0.00000000E+00  0.00000000E+00
  0.00000000E+00  0.00000000E+00  0.00000000E+00
