MoS2_monolayer_16vac                    
   1.00000000000000     
     3.1230919360999998    0.0000000000000000    0.0000000000000000
    -1.5615459680999999    2.7046769550000000    0.0000000000000000
     0.0000000000000000    0.0000000000000000   19.1088052650000009
   Mo   S 
     1     2
Direct
  0.3333333433267143  0.6666666866320838  0.0813457868476561
  0.6666666268951005  0.3333333133679162  0.1625901532221619
  0.6666666268951005  0.3333333133679162  0.0000995189937214
 
  0.00000000E+00  0.00000000E+00  0.00000000E+00
  0.00000000E+00  0.00000000E+00  0.00000000E+00
  0.00000000E+00  0.00000000E+00  0.00000000E+00
