Graphene_r3_r3                          
   1.00000000000000     
     4.2675204628643426    0.0000000000000000    0.0000000000000000
    -2.1337602314321713    3.6957811320271325    0.0000000000000000
     0.0000000000000000    0.0000000000000000   20.0000000000000000
   C 
     6
Direct
  0.0000000000000000  0.0000000000000000  0.0000000000000000
  0.0000000000000000  0.3333333333333357  0.0000000000000000
  0.3333333333333357  0.0000000000000000  0.0000000000000000
  0.3333333333333357  0.6666666666666643  0.0000000000000000
  0.6666666666666643  0.3333333333333357  0.0000000000000000
  0.6666666666666643  0.6666666666666643  0.0000000000000000
 
  0.00000000E+00  0.00000000E+00  0.00000000E+00
  0.00000000E+00  0.00000000E+00  0.00000000E+00
  0.00000000E+00  0.00000000E+00  0.00000000E+00
  0.00000000E+00  0.00000000E+00  0.00000000E+00
  0.00000000E+00  0.00000000E+00  0.00000000E+00
  0.00000000E+00  0.00000000E+00  0.00000000E+00
