hex
40
Line-mode
reciprocal
0.500000 0.000000 0.00000 ! M
0.000000 0.000000 0.00000 ! G

0.000000 0.000000 0.00000 ! G
0.333333 0.333333 0.00000 ! K
