Graphene_r3_r3
   1.00000000000000
     4.2675204628643429    0.0000000000000000    0.0000000000000000
    -2.1337602314321715    3.6957811320271327    0.0000000000000000
     0.0000000000000000    0.0000000000000000   20.0000000000000000
   C
     6
Direct
  0.0000000000000000  0.0000000000000000  0.0000000000000000
  0.0000000000000000  0.3333333333333333  0.0000000000000000
  0.3333333333333333  0.0000000000000000  0.0000000000000000
  0.3333333333333333  0.6666666666666667  0.0000000000000000
  0.6666666666666667  0.3333333333333333  0.0000000000000000
  0.6666666666666667  0.6666666666666667  0.0000000000000000