Automatically generated mesh
      256
Reciprocal lattice
    0.00000000000000    0.00000000000000    0.00000000000000             1
    0.09090909090909    0.00000000000000    0.00000000000000             8
    0.18181818181818    0.00000000000000    0.00000000000000             8
    0.27272727272727   -0.00000000000000    0.00000000000000             8
    0.36363636363636    0.00000000000000    0.00000000000000             8
    0.45454545454546    0.00000000000000    0.00000000000000             8
    0.09090909090909    0.09090909090909    0.00000000000000             6
    0.18181818181818    0.09090909090909    0.00000000000000            24
    0.27272727272727    0.09090909090909    0.00000000000000            24
    0.36363636363636    0.09090909090909    0.00000000000000            24
    0.45454545454546    0.09090909090909    0.00000000000000            24
   -0.45454545454546    0.09090909090909   -0.00000000000000            24
   -0.36363636363636    0.09090909090909   -0.00000000000000            24
   -0.27272727272727    0.09090909090909   -0.00000000000000            24
   -0.18181818181818    0.09090909090909   -0.00000000000000            24
   -0.09090909090909    0.09090909090909   -0.00000000000000            12
    0.18181818181818    0.18181818181818    0.00000000000000             6
    0.27272727272727    0.18181818181818    0.00000000000000            24
    0.36363636363636    0.18181818181818    0.00000000000000            24
    0.45454545454545    0.18181818181818    0.00000000000000            24
   -0.45454545454545    0.18181818181818   -0.00000000000000            24
   -0.36363636363636    0.18181818181818   -0.00000000000000            24
   -0.27272727272727    0.18181818181818   -0.00000000000000            24
   -0.18181818181818    0.18181818181818   -0.00000000000000            12
    0.27272727272727    0.27272727272727    0.00000000000000             6
    0.36363636363636    0.27272727272727    0.00000000000000            24
    0.45454545454546    0.27272727272727    0.00000000000000            24
   -0.45454545454545    0.27272727272727   -0.00000000000000            24
   -0.36363636363636    0.27272727272727   -0.00000000000000            24
   -0.27272727272727    0.27272727272727   -0.00000000000000            12
    0.36363636363636    0.36363636363636    0.00000000000000             6
    0.45454545454546    0.36363636363636   -0.00000000000000            24
   -0.45454545454545    0.36363636363636    0.00000000000000            24
   -0.36363636363636    0.36363636363636   -0.00000000000000            12
    0.45454545454546    0.45454545454546    0.00000000000000             6
   -0.45454545454546    0.45454545454545   -0.00000000000000            12
    0.27272727272727    0.18181818181818    0.09090909090909            24
    0.36363636363636    0.18181818181818    0.09090909090909            48
    0.45454545454546    0.18181818181818    0.09090909090909            48
   -0.45454545454546    0.18181818181818    0.09090909090909            48
    0.36363636363636    0.27272727272727    0.09090909090909            24
    0.45454545454545    0.27272727272727    0.09090909090909            48
   -0.45454545454545    0.27272727272727    0.09090909090909            48
   -0.36363636363636    0.27272727272727    0.09090909090909            48
   -0.27272727272727    0.27272727272727    0.09090909090909            48
   -0.18181818181818    0.27272727272727    0.09090909090909            24
    0.45454545454546    0.36363636363636    0.09090909090909            24
   -0.45454545454545    0.36363636363636    0.09090909090909            48
   -0.36363636363636    0.36363636363636    0.09090909090909            48
   -0.27272727272727    0.36363636363636    0.09090909090909            24
   -0.45454545454545    0.45454545454545    0.09090909090909            24
   -0.36363636363636    0.45454545454545    0.09090909090909            24
   -0.45454545454545    0.36363636363636    0.18181818181818            24
   -0.36363636363636    0.36363636363636    0.18181818181818            48
   -0.36363636363636    0.45454545454546    0.18181818181818            24
   -0.27272727272727    0.45454545454545    0.18181818181818            24 
0.00000000  0.00000000  0.00000000   0.000
   0.02631579  0.00000000  0.02631579   0.000
   0.05263158  0.00000000  0.05263158   0.000
   0.07894737  0.00000000  0.07894737   0.000
   0.10526316  0.00000000  0.10526316   0.000
   0.13157895  0.00000000  0.13157895   0.000
   0.15789474  0.00000000  0.15789474   0.000
   0.18421053  0.00000000  0.18421053   0.000
   0.21052632  0.00000000  0.21052632   0.000
   0.23684211  0.00000000  0.23684211   0.000
   0.26315789  0.00000000  0.26315789   0.000
   0.28947368  0.00000000  0.28947368   0.000
   0.31578947  0.00000000  0.31578947   0.000
   0.34210526  0.00000000  0.34210526   0.000
   0.36842105  0.00000000  0.36842105   0.000
   0.39473684  0.00000000  0.39473684   0.000
   0.42105263  0.00000000  0.42105263   0.000
   0.44736842  0.00000000  0.44736842   0.000
   0.47368421  0.00000000  0.47368421   0.000
   0.50000000  0.00000000  0.50000000   0.000
   0.50000000  0.00000000  0.50000000   0.000
   0.50000000  0.01315789  0.51315789   0.000
   0.50000000  0.02631579  0.52631579   0.000
   0.50000000  0.03947368  0.53947368   0.000
   0.50000000  0.05263158  0.55263158   0.000
   0.50000000  0.06578947  0.56578947   0.000
   0.50000000  0.07894737  0.57894737   0.000
   0.50000000  0.09210526  0.59210526   0.000
   0.50000000  0.10526316  0.60526316   0.000
   0.50000000  0.11842105  0.61842105   0.000
   0.50000000  0.13157895  0.63157895   0.000
   0.50000000  0.14473684  0.64473684   0.000
   0.50000000  0.15789474  0.65789474   0.000
   0.50000000  0.17105263  0.67105263   0.000
   0.50000000  0.18421053  0.68421053   0.000
   0.50000000  0.19736842  0.69736842   0.000
   0.50000000  0.21052632  0.71052632   0.000
   0.50000000  0.22368421  0.72368421   0.000
   0.50000000  0.23684211  0.73684211   0.000
   0.50000000  0.25000000  0.75000000   0.000
   0.50000000  0.25000000  0.75000000   0.000
   0.49342105  0.25657895  0.75000000   0.000
   0.48684211  0.26315789  0.75000000   0.000
   0.48026316  0.26973684  0.75000000   0.000
   0.47368421  0.27631579  0.75000000   0.000
   0.46710526  0.28289474  0.75000000   0.000
   0.46052632  0.28947368  0.75000000   0.000
   0.45394737  0.29605263  0.75000000   0.000
   0.44736842  0.30263158  0.75000000   0.000
   0.44078947  0.30921053  0.75000000   0.000
   0.43421053  0.31578947  0.75000000   0.000
   0.42763158  0.32236842  0.75000000   0.000
   0.42105263  0.32894737  0.75000000   0.000
   0.41447368  0.33552632  0.75000000   0.000
   0.40789474  0.34210526  0.75000000   0.000
   0.40131579  0.34868421  0.75000000   0.000
   0.39473684  0.35526316  0.75000000   0.000
   0.38815789  0.36184211  0.75000000   0.000
   0.38157895  0.36842105  0.75000000   0.000
   0.37500000  0.37500000  0.75000000   0.000
   0.37500000  0.37500000  0.75000000   0.000
   0.35526316  0.35526316  0.71052632   0.000
   0.33552632  0.33552632  0.67105263   0.000
   0.31578947  0.31578947  0.63157895   0.000
   0.29605263  0.29605263  0.59210526   0.000
   0.27631579  0.27631579  0.55263158   0.000
   0.25657895  0.25657895  0.51315789   0.000
   0.23684211  0.23684211  0.47368421   0.000
   0.21710526  0.21710526  0.43421053   0.000
   0.19736842  0.19736842  0.39473684   0.000
   0.17763158  0.17763158  0.35526316   0.000
   0.15789474  0.15789474  0.31578947   0.000
   0.13815789  0.13815789  0.27631579   0.000
   0.11842105  0.11842105  0.23684211   0.000
   0.09868421  0.09868421  0.19736842   0.000
   0.07894737  0.07894737  0.15789474   0.000
   0.05921053  0.05921053  0.11842105   0.000
   0.03947368  0.03947368  0.07894737   0.000
   0.01973684  0.01973684  0.03947368   0.000
   0.00000000  0.00000000  0.00000000   0.000
   0.00000000  0.00000000  0.00000000   0.000
   0.02631579  0.02631579  0.02631579   0.000
   0.05263158  0.05263158  0.05263158   0.000
   0.07894737  0.07894737  0.07894737   0.000
   0.10526316  0.10526316  0.10526316   0.000
   0.13157895  0.13157895  0.13157895   0.000
   0.15789474  0.15789474  0.15789474   0.000
   0.18421053  0.18421053  0.18421053   0.000
   0.21052632  0.21052632  0.21052632   0.000
   0.23684211  0.23684211  0.23684211   0.000
   0.26315789  0.26315789  0.26315789   0.000
   0.28947368  0.28947368  0.28947368   0.000
   0.31578947  0.31578947  0.31578947   0.000
   0.34210526  0.34210526  0.34210526   0.000
   0.36842105  0.36842105  0.36842105   0.000
   0.39473684  0.39473684  0.39473684   0.000
   0.42105263  0.42105263  0.42105263   0.000
   0.44736842  0.44736842  0.44736842   0.000
   0.47368421  0.47368421  0.47368421   0.000
   0.50000000  0.50000000  0.50000000   0.000
   0.50000000  0.50000000  0.50000000   0.000
   0.50657895  0.48684211  0.50657895   0.000
   0.51315789  0.47368421  0.51315789   0.000
   0.51973684  0.46052632  0.51973684   0.000
   0.52631579  0.44736842  0.52631579   0.000
   0.53289474  0.43421053  0.53289474   0.000
   0.53947368  0.42105263  0.53947368   0.000
   0.54605263  0.40789474  0.54605263   0.000
   0.55263158  0.39473684  0.55263158   0.000
   0.55921053  0.38157895  0.55921053   0.000
   0.56578947  0.36842105  0.56578947   0.000
   0.57236842  0.35526316  0.57236842   0.000
   0.57894737  0.34210526  0.57894737   0.000
   0.58552632  0.32894737  0.58552632   0.000
   0.59210526  0.31578947  0.59210526   0.000
   0.59868421  0.30263158  0.59868421   0.000
   0.60526316  0.28947368  0.60526316   0.000
   0.61184211  0.27631579  0.61184211   0.000
   0.61842105  0.26315789  0.61842105   0.000
   0.62500000  0.25000000  0.62500000   0.000
   0.62500000  0.25000000  0.62500000   0.000
   0.61842105  0.25000000  0.63157895   0.000
   0.61184211  0.25000000  0.63815789   0.000
   0.60526316  0.25000000  0.64473684   0.000
   0.59868421  0.25000000  0.65131579   0.000
   0.59210526  0.25000000  0.65789474   0.000
   0.58552632  0.25000000  0.66447368   0.000
   0.57894737  0.25000000  0.67105263   0.000
   0.57236842  0.25000000  0.67763158   0.000
   0.56578947  0.25000000  0.68421053   0.000
   0.55921053  0.25000000  0.69078947   0.000
   0.55263158  0.25000000  0.69736842   0.000
   0.54605263  0.25000000  0.70394737   0.000
   0.53947368  0.25000000  0.71052632   0.000
   0.53289474  0.25000000  0.71710526   0.000
   0.52631579  0.25000000  0.72368421   0.000
   0.51973684  0.25000000  0.73026316   0.000
   0.51315789  0.25000000  0.73684211   0.000
   0.50657895  0.25000000  0.74342105   0.000
   0.50000000  0.25000000  0.75000000   0.000
   0.50000000  0.25000000  0.75000000   0.000
   0.50000000  0.26315789  0.73684211   0.000
   0.50000000  0.27631579  0.72368421   0.000
   0.50000000  0.28947368  0.71052632   0.000
   0.50000000  0.30263158  0.69736842   0.000
   0.50000000  0.31578947  0.68421053   0.000
   0.50000000  0.32894737  0.67105263   0.000
   0.50000000  0.34210526  0.65789474   0.000
   0.50000000  0.35526316  0.64473684   0.000
   0.50000000  0.36842105  0.63157895   0.000
   0.50000000  0.38157895  0.61842105   0.000
   0.50000000  0.39473684  0.60526316   0.000
   0.50000000  0.40789474  0.59210526   0.000
   0.50000000  0.42105263  0.57894737   0.000
   0.50000000  0.43421053  0.56578947   0.000
   0.50000000  0.44736842  0.55263158   0.000
   0.50000000  0.46052632  0.53947368   0.000
   0.50000000  0.47368421  0.52631579   0.000
   0.50000000  0.48684211  0.51315789   0.000
   0.50000000  0.50000000  0.50000000   0.000
   0.50000000  0.50000000  0.50000000   0.000
   0.49342105  0.49342105  0.51315789   0.000
   0.48684211  0.48684211  0.52631579   0.000
   0.48026316  0.48026316  0.53947368   0.000
   0.47368421  0.47368421  0.55263158   0.000
   0.46710526  0.46710526  0.56578947   0.000
   0.46052632  0.46052632  0.57894737   0.000
   0.45394737  0.45394737  0.59210526   0.000
   0.44736842  0.44736842  0.60526316   0.000
   0.44078947  0.44078947  0.61842105   0.000
   0.43421053  0.43421053  0.63157895   0.000
   0.42763158  0.42763158  0.64473684   0.000
   0.42105263  0.42105263  0.65789474   0.000
   0.41447368  0.41447368  0.67105263   0.000
   0.40789474  0.40789474  0.68421053   0.000
   0.40131579  0.40131579  0.69736842   0.000
   0.39473684  0.39473684  0.71052632   0.000
   0.38815789  0.38815789  0.72368421   0.000
   0.38157895  0.38157895  0.73684211   0.000
   0.37500000  0.37500000  0.75000000   0.000
   0.62500000  0.25000000  0.62500000   0.000
   0.61842105  0.23684211  0.61842105   0.000
   0.61184211  0.22368421  0.61184211   0.000
   0.60526316  0.21052632  0.60526316   0.000
   0.59868421  0.19736842  0.59868421   0.000
   0.59210526  0.18421053  0.59210526   0.000
   0.58552632  0.17105263  0.58552632   0.000
   0.57894737  0.15789474  0.57894737   0.000
   0.57236842  0.14473684  0.57236842   0.000
   0.56578947  0.13157895  0.56578947   0.000
   0.55921053  0.11842105  0.55921053   0.000
   0.55263158  0.10526316  0.55263158   0.000
   0.54605263  0.09210526  0.54605263   0.000
   0.53947368  0.07894737  0.53947368   0.000
   0.53289474  0.06578947  0.53289474   0.000
   0.52631579  0.05263158  0.52631579   0.000
   0.51973684  0.03947368  0.51973684   0.000
   0.51315789  0.02631579  0.51315789   0.000
   0.50657895  0.01315789  0.50657895   0.000
   0.50000000  0.00000000  0.50000000   0.000
